data/exact/exact_072.gr
p tdp 62 108
1 2
1 3
1 5
1 6
2 3
2 4
3 7
3 4
3 8
3 9
4 5
4 28
5 7
5 8
5 29
6 35
6 36
6 27
7 10
7 11
8 30
8 31
9 11
9 31
10 15
10 32
11 29
12 13
12 16
12 17
13 14
13 15
14 16
14 17
14 33
15 16
15 30
16 32
17 55
17 57
18 19
18 21
18 34
18 22
19 20
19 21
19 22
20 48
20 49
21 52
21 56
22 52
22 56
23 24
23 37
23 25
23 26
24 25
24 26
24 27
25 37
25 36
26 37
26 60
27 35
27 58
28 58
29 31
30 32
33 55
33 57
34 48
34 49
35 36
38 39
38 40
39 40
39 41
39 42
39 43
40 41
40 42
40 43
41 46
42 61
43 62
43 47
44 45
44 48
44 49
45 46
45 47
46 51
47 51
48 50
49 50
50 51
52 53
52 54
53 55
53 56
53 57
53 54
54 55
54 56
54 57
59 60
61 62
