solutions/best/exact/exact_072.sol
10
8
9
2
27
29
25
22
7
4
32
29
13
16
13
33
15
8
49
18
19
0
21
26
23
27
25
1
4
9
32
29
16
17
18
6
35
23
42
38
39
22
43
41
51
49
51
51
43
48
51
45
54
33
53
54
54
54
28
26
59
42
61
